c *********************************
c * Circuit generated by BenCGen
c *
c * Parity_225
c *
c * Ports with 1 gate(s): 1
c * Ports with 2 gate(s): 225
c * Total gates: 226
c *********************************
p cnf 451 901
1 228 0
-1 -228 0
1 -227 0
228 -227 0
-1 -228 227 0
1 2 -229 0
-1 2 229 0
1 -2 229 0
-1 -2 -229 0
3 4 -230 0
-3 4 230 0
3 -4 230 0
-3 -4 -230 0
5 6 -231 0
-5 6 231 0
5 -6 231 0
-5 -6 -231 0
7 8 -232 0
-7 8 232 0
7 -8 232 0
-7 -8 -232 0
9 10 -233 0
-9 10 233 0
9 -10 233 0
-9 -10 -233 0
11 12 -234 0
-11 12 234 0
11 -12 234 0
-11 -12 -234 0
13 14 -235 0
-13 14 235 0
13 -14 235 0
-13 -14 -235 0
15 16 -236 0
-15 16 236 0
15 -16 236 0
-15 -16 -236 0
17 18 -237 0
-17 18 237 0
17 -18 237 0
-17 -18 -237 0
19 20 -238 0
-19 20 238 0
19 -20 238 0
-19 -20 -238 0
21 22 -239 0
-21 22 239 0
21 -22 239 0
-21 -22 -239 0
23 24 -240 0
-23 24 240 0
23 -24 240 0
-23 -24 -240 0
25 26 -241 0
-25 26 241 0
25 -26 241 0
-25 -26 -241 0
27 28 -242 0
-27 28 242 0
27 -28 242 0
-27 -28 -242 0
29 30 -243 0
-29 30 243 0
29 -30 243 0
-29 -30 -243 0
31 32 -244 0
-31 32 244 0
31 -32 244 0
-31 -32 -244 0
33 34 -245 0
-33 34 245 0
33 -34 245 0
-33 -34 -245 0
35 36 -246 0
-35 36 246 0
35 -36 246 0
-35 -36 -246 0
37 38 -247 0
-37 38 247 0
37 -38 247 0
-37 -38 -247 0
39 40 -248 0
-39 40 248 0
39 -40 248 0
-39 -40 -248 0
41 42 -249 0
-41 42 249 0
41 -42 249 0
-41 -42 -249 0
43 44 -250 0
-43 44 250 0
43 -44 250 0
-43 -44 -250 0
45 46 -251 0
-45 46 251 0
45 -46 251 0
-45 -46 -251 0
47 48 -252 0
-47 48 252 0
47 -48 252 0
-47 -48 -252 0
49 50 -253 0
-49 50 253 0
49 -50 253 0
-49 -50 -253 0
51 52 -254 0
-51 52 254 0
51 -52 254 0
-51 -52 -254 0
53 54 -255 0
-53 54 255 0
53 -54 255 0
-53 -54 -255 0
55 56 -256 0
-55 56 256 0
55 -56 256 0
-55 -56 -256 0
57 58 -257 0
-57 58 257 0
57 -58 257 0
-57 -58 -257 0
59 60 -258 0
-59 60 258 0
59 -60 258 0
-59 -60 -258 0
61 62 -259 0
-61 62 259 0
61 -62 259 0
-61 -62 -259 0
63 64 -260 0
-63 64 260 0
63 -64 260 0
-63 -64 -260 0
65 66 -261 0
-65 66 261 0
65 -66 261 0
-65 -66 -261 0
67 68 -262 0
-67 68 262 0
67 -68 262 0
-67 -68 -262 0
69 70 -263 0
-69 70 263 0
69 -70 263 0
-69 -70 -263 0
71 72 -264 0
-71 72 264 0
71 -72 264 0
-71 -72 -264 0
73 74 -265 0
-73 74 265 0
73 -74 265 0
-73 -74 -265 0
75 76 -266 0
-75 76 266 0
75 -76 266 0
-75 -76 -266 0
77 78 -267 0
-77 78 267 0
77 -78 267 0
-77 -78 -267 0
79 80 -268 0
-79 80 268 0
79 -80 268 0
-79 -80 -268 0
81 82 -269 0
-81 82 269 0
81 -82 269 0
-81 -82 -269 0
83 84 -270 0
-83 84 270 0
83 -84 270 0
-83 -84 -270 0
85 86 -271 0
-85 86 271 0
85 -86 271 0
-85 -86 -271 0
87 88 -272 0
-87 88 272 0
87 -88 272 0
-87 -88 -272 0
89 90 -273 0
-89 90 273 0
89 -90 273 0
-89 -90 -273 0
91 92 -274 0
-91 92 274 0
91 -92 274 0
-91 -92 -274 0
93 94 -275 0
-93 94 275 0
93 -94 275 0
-93 -94 -275 0
95 96 -276 0
-95 96 276 0
95 -96 276 0
-95 -96 -276 0
97 98 -277 0
-97 98 277 0
97 -98 277 0
-97 -98 -277 0
99 100 -278 0
-99 100 278 0
99 -100 278 0
-99 -100 -278 0
101 102 -279 0
-101 102 279 0
101 -102 279 0
-101 -102 -279 0
103 104 -280 0
-103 104 280 0
103 -104 280 0
-103 -104 -280 0
105 106 -281 0
-105 106 281 0
105 -106 281 0
-105 -106 -281 0
107 108 -282 0
-107 108 282 0
107 -108 282 0
-107 -108 -282 0
109 110 -283 0
-109 110 283 0
109 -110 283 0
-109 -110 -283 0
111 112 -284 0
-111 112 284 0
111 -112 284 0
-111 -112 -284 0
113 114 -285 0
-113 114 285 0
113 -114 285 0
-113 -114 -285 0
115 116 -286 0
-115 116 286 0
115 -116 286 0
-115 -116 -286 0
117 118 -287 0
-117 118 287 0
117 -118 287 0
-117 -118 -287 0
119 120 -288 0
-119 120 288 0
119 -120 288 0
-119 -120 -288 0
121 122 -289 0
-121 122 289 0
121 -122 289 0
-121 -122 -289 0
123 124 -290 0
-123 124 290 0
123 -124 290 0
-123 -124 -290 0
125 126 -291 0
-125 126 291 0
125 -126 291 0
-125 -126 -291 0
127 128 -292 0
-127 128 292 0
127 -128 292 0
-127 -128 -292 0
129 130 -293 0
-129 130 293 0
129 -130 293 0
-129 -130 -293 0
131 132 -294 0
-131 132 294 0
131 -132 294 0
-131 -132 -294 0
133 134 -295 0
-133 134 295 0
133 -134 295 0
-133 -134 -295 0
135 136 -296 0
-135 136 296 0
135 -136 296 0
-135 -136 -296 0
137 138 -297 0
-137 138 297 0
137 -138 297 0
-137 -138 -297 0
139 140 -298 0
-139 140 298 0
139 -140 298 0
-139 -140 -298 0
141 142 -299 0
-141 142 299 0
141 -142 299 0
-141 -142 -299 0
143 144 -300 0
-143 144 300 0
143 -144 300 0
-143 -144 -300 0
145 146 -301 0
-145 146 301 0
145 -146 301 0
-145 -146 -301 0
147 148 -302 0
-147 148 302 0
147 -148 302 0
-147 -148 -302 0
149 150 -303 0
-149 150 303 0
149 -150 303 0
-149 -150 -303 0
151 152 -304 0
-151 152 304 0
151 -152 304 0
-151 -152 -304 0
153 154 -305 0
-153 154 305 0
153 -154 305 0
-153 -154 -305 0
155 156 -306 0
-155 156 306 0
155 -156 306 0
-155 -156 -306 0
157 158 -307 0
-157 158 307 0
157 -158 307 0
-157 -158 -307 0
159 160 -308 0
-159 160 308 0
159 -160 308 0
-159 -160 -308 0
161 162 -309 0
-161 162 309 0
161 -162 309 0
-161 -162 -309 0
163 164 -310 0
-163 164 310 0
163 -164 310 0
-163 -164 -310 0
165 166 -311 0
-165 166 311 0
165 -166 311 0
-165 -166 -311 0
167 168 -312 0
-167 168 312 0
167 -168 312 0
-167 -168 -312 0
169 170 -313 0
-169 170 313 0
169 -170 313 0
-169 -170 -313 0
171 172 -314 0
-171 172 314 0
171 -172 314 0
-171 -172 -314 0
173 174 -315 0
-173 174 315 0
173 -174 315 0
-173 -174 -315 0
175 176 -316 0
-175 176 316 0
175 -176 316 0
-175 -176 -316 0
177 178 -317 0
-177 178 317 0
177 -178 317 0
-177 -178 -317 0
179 180 -318 0
-179 180 318 0
179 -180 318 0
-179 -180 -318 0
181 182 -319 0
-181 182 319 0
181 -182 319 0
-181 -182 -319 0
183 184 -320 0
-183 184 320 0
183 -184 320 0
-183 -184 -320 0
185 186 -321 0
-185 186 321 0
185 -186 321 0
-185 -186 -321 0
187 188 -322 0
-187 188 322 0
187 -188 322 0
-187 -188 -322 0
189 190 -323 0
-189 190 323 0
189 -190 323 0
-189 -190 -323 0
191 192 -324 0
-191 192 324 0
191 -192 324 0
-191 -192 -324 0
193 194 -325 0
-193 194 325 0
193 -194 325 0
-193 -194 -325 0
195 196 -326 0
-195 196 326 0
195 -196 326 0
-195 -196 -326 0
197 198 -327 0
-197 198 327 0
197 -198 327 0
-197 -198 -327 0
199 200 -328 0
-199 200 328 0
199 -200 328 0
-199 -200 -328 0
201 202 -329 0
-201 202 329 0
201 -202 329 0
-201 -202 -329 0
203 204 -330 0
-203 204 330 0
203 -204 330 0
-203 -204 -330 0
205 206 -331 0
-205 206 331 0
205 -206 331 0
-205 -206 -331 0
207 208 -332 0
-207 208 332 0
207 -208 332 0
-207 -208 -332 0
209 210 -333 0
-209 210 333 0
209 -210 333 0
-209 -210 -333 0
211 212 -334 0
-211 212 334 0
211 -212 334 0
-211 -212 -334 0
213 214 -335 0
-213 214 335 0
213 -214 335 0
-213 -214 -335 0
215 216 -336 0
-215 216 336 0
215 -216 336 0
-215 -216 -336 0
217 218 -337 0
-217 218 337 0
217 -218 337 0
-217 -218 -337 0
219 220 -338 0
-219 220 338 0
219 -220 338 0
-219 -220 -338 0
221 222 -339 0
-221 222 339 0
221 -222 339 0
-221 -222 -339 0
223 224 -340 0
-223 224 340 0
223 -224 340 0
-223 -224 -340 0
229 230 -341 0
-229 230 341 0
229 -230 341 0
-229 -230 -341 0
231 232 -342 0
-231 232 342 0
231 -232 342 0
-231 -232 -342 0
233 234 -343 0
-233 234 343 0
233 -234 343 0
-233 -234 -343 0
235 236 -344 0
-235 236 344 0
235 -236 344 0
-235 -236 -344 0
237 238 -345 0
-237 238 345 0
237 -238 345 0
-237 -238 -345 0
239 240 -346 0
-239 240 346 0
239 -240 346 0
-239 -240 -346 0
241 242 -347 0
-241 242 347 0
241 -242 347 0
-241 -242 -347 0
243 244 -348 0
-243 244 348 0
243 -244 348 0
-243 -244 -348 0
245 246 -349 0
-245 246 349 0
245 -246 349 0
-245 -246 -349 0
247 248 -350 0
-247 248 350 0
247 -248 350 0
-247 -248 -350 0
249 250 -351 0
-249 250 351 0
249 -250 351 0
-249 -250 -351 0
251 252 -352 0
-251 252 352 0
251 -252 352 0
-251 -252 -352 0
253 254 -353 0
-253 254 353 0
253 -254 353 0
-253 -254 -353 0
255 256 -354 0
-255 256 354 0
255 -256 354 0
-255 -256 -354 0
257 258 -355 0
-257 258 355 0
257 -258 355 0
-257 -258 -355 0
259 260 -356 0
-259 260 356 0
259 -260 356 0
-259 -260 -356 0
261 262 -357 0
-261 262 357 0
261 -262 357 0
-261 -262 -357 0
263 264 -358 0
-263 264 358 0
263 -264 358 0
-263 -264 -358 0
265 266 -359 0
-265 266 359 0
265 -266 359 0
-265 -266 -359 0
267 268 -360 0
-267 268 360 0
267 -268 360 0
-267 -268 -360 0
269 270 -361 0
-269 270 361 0
269 -270 361 0
-269 -270 -361 0
271 272 -362 0
-271 272 362 0
271 -272 362 0
-271 -272 -362 0
273 274 -363 0
-273 274 363 0
273 -274 363 0
-273 -274 -363 0
275 276 -364 0
-275 276 364 0
275 -276 364 0
-275 -276 -364 0
277 278 -365 0
-277 278 365 0
277 -278 365 0
-277 -278 -365 0
279 280 -366 0
-279 280 366 0
279 -280 366 0
-279 -280 -366 0
281 282 -367 0
-281 282 367 0
281 -282 367 0
-281 -282 -367 0
283 284 -368 0
-283 284 368 0
283 -284 368 0
-283 -284 -368 0
285 286 -369 0
-285 286 369 0
285 -286 369 0
-285 -286 -369 0
287 288 -370 0
-287 288 370 0
287 -288 370 0
-287 -288 -370 0
289 290 -371 0
-289 290 371 0
289 -290 371 0
-289 -290 -371 0
291 292 -372 0
-291 292 372 0
291 -292 372 0
-291 -292 -372 0
293 294 -373 0
-293 294 373 0
293 -294 373 0
-293 -294 -373 0
295 296 -374 0
-295 296 374 0
295 -296 374 0
-295 -296 -374 0
297 298 -375 0
-297 298 375 0
297 -298 375 0
-297 -298 -375 0
299 300 -376 0
-299 300 376 0
299 -300 376 0
-299 -300 -376 0
301 302 -377 0
-301 302 377 0
301 -302 377 0
-301 -302 -377 0
303 304 -378 0
-303 304 378 0
303 -304 378 0
-303 -304 -378 0
305 306 -379 0
-305 306 379 0
305 -306 379 0
-305 -306 -379 0
307 308 -380 0
-307 308 380 0
307 -308 380 0
-307 -308 -380 0
309 310 -381 0
-309 310 381 0
309 -310 381 0
-309 -310 -381 0
311 312 -382 0
-311 312 382 0
311 -312 382 0
-311 -312 -382 0
313 314 -383 0
-313 314 383 0
313 -314 383 0
-313 -314 -383 0
315 316 -384 0
-315 316 384 0
315 -316 384 0
-315 -316 -384 0
317 318 -385 0
-317 318 385 0
317 -318 385 0
-317 -318 -385 0
319 320 -386 0
-319 320 386 0
319 -320 386 0
-319 -320 -386 0
321 322 -387 0
-321 322 387 0
321 -322 387 0
-321 -322 -387 0
323 324 -388 0
-323 324 388 0
323 -324 388 0
-323 -324 -388 0
325 326 -389 0
-325 326 389 0
325 -326 389 0
-325 -326 -389 0
327 328 -390 0
-327 328 390 0
327 -328 390 0
-327 -328 -390 0
329 330 -391 0
-329 330 391 0
329 -330 391 0
-329 -330 -391 0
331 332 -392 0
-331 332 392 0
331 -332 392 0
-331 -332 -392 0
333 334 -393 0
-333 334 393 0
333 -334 393 0
-333 -334 -393 0
335 336 -394 0
-335 336 394 0
335 -336 394 0
-335 -336 -394 0
337 338 -395 0
-337 338 395 0
337 -338 395 0
-337 -338 -395 0
339 340 -396 0
-339 340 396 0
339 -340 396 0
-339 -340 -396 0
341 342 -397 0
-341 342 397 0
341 -342 397 0
-341 -342 -397 0
343 344 -398 0
-343 344 398 0
343 -344 398 0
-343 -344 -398 0
345 346 -399 0
-345 346 399 0
345 -346 399 0
-345 -346 -399 0
347 348 -400 0
-347 348 400 0
347 -348 400 0
-347 -348 -400 0
349 350 -401 0
-349 350 401 0
349 -350 401 0
-349 -350 -401 0
351 352 -402 0
-351 352 402 0
351 -352 402 0
-351 -352 -402 0
353 354 -403 0
-353 354 403 0
353 -354 403 0
-353 -354 -403 0
355 356 -404 0
-355 356 404 0
355 -356 404 0
-355 -356 -404 0
357 358 -405 0
-357 358 405 0
357 -358 405 0
-357 -358 -405 0
359 360 -406 0
-359 360 406 0
359 -360 406 0
-359 -360 -406 0
361 362 -407 0
-361 362 407 0
361 -362 407 0
-361 -362 -407 0
363 364 -408 0
-363 364 408 0
363 -364 408 0
-363 -364 -408 0
365 366 -409 0
-365 366 409 0
365 -366 409 0
-365 -366 -409 0
367 368 -410 0
-367 368 410 0
367 -368 410 0
-367 -368 -410 0
369 370 -411 0
-369 370 411 0
369 -370 411 0
-369 -370 -411 0
371 372 -412 0
-371 372 412 0
371 -372 412 0
-371 -372 -412 0
373 374 -413 0
-373 374 413 0
373 -374 413 0
-373 -374 -413 0
375 376 -414 0
-375 376 414 0
375 -376 414 0
-375 -376 -414 0
377 378 -415 0
-377 378 415 0
377 -378 415 0
-377 -378 -415 0
379 380 -416 0
-379 380 416 0
379 -380 416 0
-379 -380 -416 0
381 382 -417 0
-381 382 417 0
381 -382 417 0
-381 -382 -417 0
383 384 -418 0
-383 384 418 0
383 -384 418 0
-383 -384 -418 0
385 386 -419 0
-385 386 419 0
385 -386 419 0
-385 -386 -419 0
387 388 -420 0
-387 388 420 0
387 -388 420 0
-387 -388 -420 0
389 390 -421 0
-389 390 421 0
389 -390 421 0
-389 -390 -421 0
391 392 -422 0
-391 392 422 0
391 -392 422 0
-391 -392 -422 0
393 394 -423 0
-393 394 423 0
393 -394 423 0
-393 -394 -423 0
395 396 -424 0
-395 396 424 0
395 -396 424 0
-395 -396 -424 0
397 398 -425 0
-397 398 425 0
397 -398 425 0
-397 -398 -425 0
399 400 -426 0
-399 400 426 0
399 -400 426 0
-399 -400 -426 0
401 402 -427 0
-401 402 427 0
401 -402 427 0
-401 -402 -427 0
403 404 -428 0
-403 404 428 0
403 -404 428 0
-403 -404 -428 0
405 406 -429 0
-405 406 429 0
405 -406 429 0
-405 -406 -429 0
407 408 -430 0
-407 408 430 0
407 -408 430 0
-407 -408 -430 0
409 410 -431 0
-409 410 431 0
409 -410 431 0
-409 -410 -431 0
411 412 -432 0
-411 412 432 0
411 -412 432 0
-411 -412 -432 0
413 414 -433 0
-413 414 433 0
413 -414 433 0
-413 -414 -433 0
415 416 -434 0
-415 416 434 0
415 -416 434 0
-415 -416 -434 0
417 418 -435 0
-417 418 435 0
417 -418 435 0
-417 -418 -435 0
419 420 -436 0
-419 420 436 0
419 -420 436 0
-419 -420 -436 0
421 422 -437 0
-421 422 437 0
421 -422 437 0
-421 -422 -437 0
423 424 -438 0
-423 424 438 0
423 -424 438 0
-423 -424 -438 0
425 426 -439 0
-425 426 439 0
425 -426 439 0
-425 -426 -439 0
427 428 -440 0
-427 428 440 0
427 -428 440 0
-427 -428 -440 0
429 430 -441 0
-429 430 441 0
429 -430 441 0
-429 -430 -441 0
431 432 -442 0
-431 432 442 0
431 -432 442 0
-431 -432 -442 0
433 434 -443 0
-433 434 443 0
433 -434 443 0
-433 -434 -443 0
435 436 -444 0
-435 436 444 0
435 -436 444 0
-435 -436 -444 0
437 438 -445 0
-437 438 445 0
437 -438 445 0
-437 -438 -445 0
439 440 -446 0
-439 440 446 0
439 -440 446 0
-439 -440 -446 0
441 442 -447 0
-441 442 447 0
441 -442 447 0
-441 -442 -447 0
443 444 -448 0
-443 444 448 0
443 -444 448 0
-443 -444 -448 0
445 225 -449 0
-445 225 449 0
445 -225 449 0
-445 -225 -449 0
446 447 -450 0
-446 447 450 0
446 -447 450 0
-446 -447 -450 0
448 449 -451 0
-448 449 451 0
448 -449 451 0
-448 -449 -451 0
450 451 -226 0
-450 451 226 0
450 -451 226 0
-450 -451 -226 0
